
--- Job new1.gms Start 02/04/23 10:59:10 42.1.0 cb854401 WEX-WEI x86 64bit/MS Windows
--- Applying:
    D:\Programs\GAMS\42\gmsprmNT.txt
--- GAMS Parameters defined
    Input "D:\University\Semester 7\Operation Research 2\Project\Answer\Phase2-answer\new1.gms"
    PageSize 0
    ScrDir "D:\University\Semester 7\Operation Research 2\Project\Answer\Phase2-answer\225a\"
    SysDir D:\Programs\GAMS\42\
    LogOption 3
    ErrMsg 1
    ErrorLog 99
    IDE 1
    LstTitleLeftAligned 1
Licensee: GAMS Demo license for Mohsen Hosseini          G230203|0002CO-GEN
          Sharif, Indonesia                                        DL084616
          D:\Programs\GAMS\42\gamslice.txt
          mhosseini1400@gmail.com, Mohsen Hosseini                         
          Demo license for demonstration and instructional purposes only
Processor information: 1 socket(s), 4 core(s), and 8 thread(s) available
GAMS 42.1.0   Copyright (C) 1987-2023 GAMS Development. All rights reserved
--- Starting compilation
--- new1.gms(10) 3 Mb
--- call gdxxrw.exe Pahse2_Data_OR2.xlsx par=demand_table rng=D!C3:E6 rdim=1 cdim=1

GDXXRW           42.1.0 cb854401 Feb 1, 2023           WEI x86 64bit/MS Window
Input file : D:\University\Semester 7\Operation Research 2\Project\Answer\Phase2-answer\Pahse2_Data_OR2.xlsx
Output file: D:\University\Semester 7\Operation Research 2\Project\Answer\Phase2-answer\Pahse2_Data_OR2.gdx
Total time = 641 Ms
--- new1.gms(11) 3 Mb
--- GDXin=D:\University\Semester 7\Operation Research 2\Project\Answer\Phase2-answer\Pahse2_Data_OR2.gdx
--- GDX File ($gdxIn) D:\University\Semester 7\Operation Research 2\Project\Answer\Phase2-answer\Pahse2_Data_OR2.gdx
--- new1.gms(32) 3 Mb
--- Starting execution: elapsed 0:00:00.686
--- Generating LP model testmodel
--- new1.gms(29) 4 Mb
---   13 rows  13 columns  25 non-zeroes
--- Range statistics (absolute non-zero finite values)
--- RHS       [min, max] : [        NA,        NA] - Zero values observed as well
--- Bound     [min, max] : [        NA,        NA]
--- Matrix    [min, max] : [ 1.000E+00, 1.000E+00]
--- Executing CPLEX (Solvelink=2): elapsed 0:00:00.688

IBM ILOG CPLEX   42.1.0 cb854401 Feb 1, 2023           WEI x86 64bit/MS Window

--- *** This solver runs with a demo license. No commercial use.
--- GMO setup time: 0.00s
--- GMO memory 0.50 Mb (peak 0.50 Mb)
--- Dictionary memory 0.00 Mb
--- Cplex 22.1.1.0 link memory 0.00 Mb (peak 0.00 Mb)
--- Starting Cplex

Version identifier: 22.1.1.0 | 2022-11-27 | 9160aff4d
CPXPARAM_Advance                                 0
CPXPARAM_Simplex_Display                         2
CPXPARAM_Threads                                 1
CPXPARAM_MIP_Display                             4
CPXPARAM_MIP_Pool_Capacity                       0
CPXPARAM_MIP_Tolerances_AbsMIPGap                0
Tried aggregator 1 time.
LP Presolve eliminated 12 rows and 13 columns.
All rows and columns eliminated.
Presolve time = 0.00 sec. (0.00 ticks)

--- LP status (1): optimal.
--- Cplex Time: 0.00sec (det. 0.01 ticks)


Optimal solution found
Objective:            0.000000

--- Reading solution for model testmodel
--- Executing after solve: elapsed 0:00:00.739
--- new1.gms(30) 4 Mb
*** Status: Normal completion
--- Job new1.gms Stop 02/04/23 10:59:11 elapsed 0:00:00.749
